12
0 1 2
0 2 1
0 3 3
0 7 3
0 9 1
0 10 2
0 11 1
1 2 2
1 4 1
1 5 3
1 8 1
1 9 3
1 10 2
2 3 2
2 4 1
2 6 3
2 9 1
2 10 3
2 11 2
3 4 2
3 5 1
3 6 1
3 9 1
3 10 2
4 7 1
4 9 2
4 10 1
4 11 1
5 6 2
5 8 1
5 9 3
5 10 2
6 7 2
6 9 1
6 10 3
7 8 2
7 9 6
7 10 1
8 10 1
9 10 2